unsat
(:max-memory         18.06
 :memory             17.96
 :nlsat-conflicts    5
 :nlsat-propagations 18
 :nlsat-stages       5
 :num-allocs         27343
 :rlimit-count       3434
 :time               0.00
 :total-time         0.01)
